NAME: tsp20_20
COMMENT: 20-tsp problem (Padberg/Rinaldi)
TYPE: TSP
DIMENSION: 20
EDGE_WEIGHT_TYPE : EUC_2D
NODE_COORD_SECTION
1 17 29
2 38 19
3 7 9
4 1 23
5 11 9
6 36 10
7 1 29
8 6 8
9 10 6
10 32 17
11 39 14
12 30 12
13 2 37
14 24 15
15 1 5
16 31 25
17 24 36
18 38 19
19 19 9
20 25 8
